M = 3;
N = 9;
E = 56;
l = [15, 10, 7];
p = [3, 2, 6, 8, 5, 4, 4];
from = [8, 8, 8, 8, 8, 8, 8, 1, 1, 1, 1, 1, 1, 1, 2, 2, 2, 2, 2, 2, 2, 3, 3, 3, 3, 3, 3, 3, 4, 4, 4, 4, 4, 4, 4, 5, 5, 5, 5, 5, 5, 5, 6, 6, 6, 6, 6, 6, 6, 7, 7, 7, 7, 7, 7, 7];
to = [1, 2, 3, 4, 5, 6, 7, 2, 3, 4, 5, 6, 7, 9, 1, 3, 4, 5, 6, 7, 9, 1, 2, 4, 5, 6, 7, 9, 1, 2, 3, 5, 6, 7, 9, 1, 2, 3, 4, 6, 7, 9, 1, 2, 3, 4, 5, 7, 9, 1, 2, 3, 4, 5, 6, 9];
w = [2, 3, 3, 4, 3, 4, 4, 3, 3, 6, 5, 6, 6, 2, 3, 6, 3, 4, 7, 7, 3, 3, 4, 7, 6, 3, 5, 3, 6, 3, 7, 5, 6, 7, 4, 5, 4, 6, 3, 3, 3, 3, 6, 7, 3, 6, 3, 2, 4, 6, 7, 5, 6, 3, 2, 4];
